(set-info :smt-lib-version 2.6)
(set-info :category "crafted")
(set-logic QF_FFA)
(define-sort FF0 () (_ FiniteField 52435875175126190479447740508185965837690552500527637822603658699938581184513))
(declare-fun return_n0_alt () FF0)
(declare-fun d_n4_alt () FF0)
(declare-fun mul_n20_alt () FF0)
(declare-fun g_n9_alt () FF0)
(declare-fun mul_n19_alt () FF0)
(declare-fun mul_n12_alt () FF0)
(declare-fun mul_n18_alt () FF0)
(declare-fun j_n3_alt () FF0)
(declare-fun mul_n17_alt () FF0)
(declare-fun i_n5_alt () FF0)
(declare-fun mul_n16_alt () FF0)
(declare-fun h_n7_alt () FF0)
(declare-fun mul_n15_alt () FF0)
(declare-fun f_n1_alt () FF0)
(declare-fun mul_n14_alt () FF0)
(declare-fun e_n2_alt () FF0)
(declare-fun mul_n13_alt () FF0)
(declare-fun c_n6_alt () FF0)
(declare-fun a_n10_alt () FF0)
(declare-fun b_n8_alt () FF0)
(declare-fun mul_n11_alt () FF0)
(declare-fun return_n0 () FF0)
(declare-fun d_n4 () FF0)
(declare-fun mul_n20 () FF0)
(declare-fun g_n9 () FF0)
(declare-fun mul_n19 () FF0)
(declare-fun mul_n12 () FF0)
(declare-fun mul_n18 () FF0)
(declare-fun j_n3 () FF0)
(declare-fun mul_n17 () FF0)
(declare-fun i_n5 () FF0)
(declare-fun mul_n16 () FF0)
(declare-fun h_n7 () FF0)
(declare-fun mul_n15 () FF0)
(declare-fun f_n1 () FF0)
(declare-fun mul_n14 () FF0)
(declare-fun e_n2 () FF0)
(declare-fun mul_n13 () FF0)
(declare-fun c_n6 () FF0)
(declare-fun a_n10 () FF0)
(declare-fun b_n8 () FF0)
(declare-fun mul_n11 () FF0)
(assert 
  (let ((let0 return_n0_alt))
  (let ((let1 (as ff1 FF0)))
  (let ((let2 (as ff52435875175126190479447740508185965837690552500527637822603658699938581184512 FF0)))
  (let ((let3 d_n4_alt))
  (let ((let4 (ff.mul let3 let2)))
  (let ((let5 (ff.add let4 let1)))
  (let ((let6 mul_n20_alt))
  (let ((let7 (ff.mul let6 let5)))
  (let ((let8 (= let7 let0)))
  (let ((let9 g_n9_alt))
  (let ((let10 (ff.mul let9 let2)))
  (let ((let11 (ff.add let10 let1)))
  (let ((let12 mul_n19_alt))
  (let ((let13 (ff.mul let12 let11)))
  (let ((let14 (= let13 let6)))
  (let ((let15 mul_n12_alt))
  (let ((let16 mul_n18_alt))
  (let ((let17 (ff.mul let16 let15)))
  (let ((let18 (= let17 let12)))
  (let ((let19 j_n3_alt))
  (let ((let20 mul_n17_alt))
  (let ((let21 (ff.mul let20 let19)))
  (let ((let22 (= let21 let16)))
  (let ((let23 i_n5_alt))
  (let ((let24 mul_n16_alt))
  (let ((let25 (ff.mul let24 let23)))
  (let ((let26 (= let25 let20)))
  (let ((let27 h_n7_alt))
  (let ((let28 mul_n15_alt))
  (let ((let29 (ff.mul let28 let27)))
  (let ((let30 (= let29 let24)))
  (let ((let31 f_n1_alt))
  (let ((let32 mul_n14_alt))
  (let ((let33 (ff.mul let32 let31)))
  (let ((let34 (= let33 let28)))
  (let ((let35 e_n2_alt))
  (let ((let36 mul_n13_alt))
  (let ((let37 (ff.mul let36 let35)))
  (let ((let38 (= let37 let32)))
  (let ((let39 c_n6_alt))
  (let ((let40 a_n10_alt))
  (let ((let41 (ff.mul let40 let39)))
  (let ((let42 (= let41 let36)))
  (let ((let43 b_n8_alt))
  (let ((let44 mul_n11_alt))
  (let ((let45 (ff.mul let44 let43)))
  (let ((let46 (= let45 let15)))
  (let ((let47 (ff.mul let43 let3)))
  (let ((let48 (= let47 let44)))
  (let ((let49 (and let48 let46 let42 let38 let34 let30 let26 let22 let18 let14 let8)))
  (let ((let50 return_n0))
  (let ((let51 d_n4))
  (let ((let52 (ff.mul let51 let2)))
  (let ((let53 (ff.add let52 let1)))
  (let ((let54 mul_n20))
  (let ((let55 (ff.mul let54 let53)))
  (let ((let56 (= let55 let50)))
  (let ((let57 g_n9))
  (let ((let58 (ff.mul let57 let2)))
  (let ((let59 (ff.add let58 let1)))
  (let ((let60 mul_n19))
  (let ((let61 (ff.mul let60 let59)))
  (let ((let62 (= let61 let54)))
  (let ((let63 mul_n12))
  (let ((let64 mul_n18))
  (let ((let65 (ff.mul let64 let63)))
  (let ((let66 (= let65 let60)))
  (let ((let67 j_n3))
  (let ((let68 mul_n17))
  (let ((let69 (ff.mul let68 let67)))
  (let ((let70 (= let69 let64)))
  (let ((let71 i_n5))
  (let ((let72 mul_n16))
  (let ((let73 (ff.mul let72 let71)))
  (let ((let74 (= let73 let68)))
  (let ((let75 h_n7))
  (let ((let76 mul_n15))
  (let ((let77 (ff.mul let76 let75)))
  (let ((let78 (= let77 let72)))
  (let ((let79 f_n1))
  (let ((let80 mul_n14))
  (let ((let81 (ff.mul let80 let79)))
  (let ((let82 (= let81 let76)))
  (let ((let83 e_n2))
  (let ((let84 mul_n13))
  (let ((let85 (ff.mul let84 let83)))
  (let ((let86 (= let85 let80)))
  (let ((let87 c_n6))
  (let ((let88 a_n10))
  (let ((let89 (ff.mul let88 let87)))
  (let ((let90 (= let89 let84)))
  (let ((let91 b_n8))
  (let ((let92 mul_n11))
  (let ((let93 (ff.mul let92 let91)))
  (let ((let94 (= let93 let63)))
  (let ((let95 (ff.mul let91 let51)))
  (let ((let96 (= let95 let92)))
  (let ((let97 (and let96 let94 let90 let86 let82 let78 let74 let70 let66 let62 let56)))
  (let ((let98 (= let50 let0)))
  (let ((let99 (not let98)))
  (let ((let100 (= let79 let31)))
  (let ((let101 (= let51 let3)))
  (let ((let102 (= let91 let43)))
  (let ((let103 (= let71 let23)))
  (let ((let104 (= let83 let35)))
  (let ((let105 (= let88 let40)))
  (let ((let106 (= let75 let27)))
  (let ((let107 (= let87 let39)))
  (let ((let108 (= let67 let19)))
  (let ((let109 (= let57 let9)))
  (let ((let110 (and let109 let108 let107 let106 let105 let104 let103 let102 let101 let100)))
  (let ((let111 (and let110 let99 let97 let49)))
  let111
))))))))))))))))))))))))))))))))))))))))))))))))))))))))))))))))))))))))))))))))))))))))))))))))))))))))))))))))
)
(check-sat)
